n = 80;
capacity = 100;
size = [80, 80, 78, 77, 77, 77, 76, 76, 75, 75, 73, 72, 71, 71, 71, 69, 69, 69, 67, 67, 67, 65, 64, 61, 59, 59, 59, 57, 57, 56, 55, 54, 54, 53, 51, 50, 50, 50, 50, 50, 49, 49, 47, 46, 45, 45, 45, 44, 43, 42, 41, 40, 40, 37, 37, 36, 36, 36, 35, 35, 34, 33, 32, 30, 29, 29, 28, 28, 27, 26, 25, 24, 24, 23, 23, 22, 21, 21, 21, 20];
